09-routing/solutions/XSH-n20-k4-39.opt.sol
Route #1: 3 8 6 18 2
Route #2: 9 14 10
Route #3: 11 4 16 12 5
Route #4: 13 20 1 7 15 19 17
Cost 717
